p edge 340 1700
e 1 29
e 1 174
e 1 296
e 1 306
e 1 316
e 2 206
e 2 210
e 2 221
e 2 324
e 2 337
e 3 15
e 3 52
e 3 129
e 3 144
e 3 310
e 4 10
e 4 32
e 4 50
e 4 192
e 4 212
e 5 73
e 5 139
e 5 272
e 5 273
e 5 304
e 6 64
e 6 104
e 6 143
e 6 147
e 6 158
e 7 69
e 7 105
e 7 199
e 7 236
e 7 247
e 8 91
e 8 97
e 8 156
e 8 163
e 8 264
e 9 57
e 9 89
e 9 132
e 9 284
e 9 336
e 10 21
e 10 149
e 10 170
e 10 252
e 10 264
e 11 57
e 11 118
e 11 175
e 11 185
e 11 252
e 12 39
e 12 83
e 12 194
e 12 248
e 12 268
e 13 14
e 13 49
e 13 113
e 13 213
e 13 241
e 14 47
e 14 131
e 14 171
e 14 256
e 14 316
e 15 38
e 15 70
e 15 70
e 15 114
e 15 147
e 16 33
e 16 72
e 16 83
e 16 237
e 16 279
e 17 27
e 17 89
e 17 109
e 17 238
e 17 259
e 18 67
e 18 76
e 18 197
e 18 212
e 18 258
e 19 38
e 19 57
e 19 160
e 19 253
e 19 314
e 20 16
e 20 104
e 20 114
e 20 242
e 20 307
e 21 128
e 21 173
e 21 234
e 21 326
e 21 340
e 22 2
e 22 88
e 22 170
e 22 198
e 22 317
e 23 39
e 23 110
e 23 201
e 23 213
e 23 258
e 24 49
e 24 53
e 24 155
e 24 162
e 24 232
e 25 122
e 25 171
e 25 183
e 25 287
e 25 333
e 26 15
e 26 121
e 26 251
e 26 267
e 26 280
e 27 16
e 27 75
e 27 96
e 27 177
e 27 298
e 28 72
e 28 194
e 28 209
e 28 228
e 28 243
e 29 81
e 29 199
e 29 238
e 29 240
e 29 242
e 30 88
e 30 154
e 30 243
e 30 292
e 30 325
e 31 58
e 31 135
e 31 212
e 31 218
e 31 225
e 32 39
e 32 55
e 32 123
e 32 136
e 32 161
e 33 25
e 33 214
e 33 228
e 33 314
e 33 318
e 34 27
e 34 147
e 34 275
e 34 289
e 34 311
e 35 34
e 35 34
e 35 111
e 35 196
e 35 243
e 36 116
e 36 177
e 36 267
e 36 276
e 36 337
e 37 49
e 37 71
e 37 74
e 37 164
e 37 237
e 38 59
e 38 189
e 38 192
e 38 196
e 38 328
e 39 71
e 39 73
e 39 112
e 39 150
e 39 195
e 40 122
e 40 144
e 40 207
e 40 316
e 40 335
e 41 26
e 41 56
e 41 94
e 41 168
e 41 321
e 42 45
e 42 79
e 42 217
e 42 315
e 42 332
e 43 114
e 43 188
e 43 199
e 43 290
e 43 308
e 44 18
e 44 35
e 44 98
e 44 230
e 44 323
e 45 39
e 45 53
e 45 65
e 45 219
e 45 321
e 46 19
e 46 26
e 46 195
e 46 241
e 46 286
e 47 2
e 47 68
e 47 89
e 47 308
e 47 308
e 48 46
e 48 46
e 48 102
e 48 145
e 48 295
e 49 130
e 49 158
e 49 184
e 49 260
e 49 339
e 50 83
e 50 246
e 50 252
e 50 255
e 50 311
e 51 77
e 51 105
e 51 174
e 51 294
e 51 296
e 52 119
e 52 139
e 52 191
e 52 278
e 52 310
e 53 28
e 53 29
e 53 114
e 53 244
e 53 314
e 54 16
e 54 45
e 54 266
e 54 323
e 54 332
e 55 155
e 55 205
e 55 234
e 55 279
e 55 283
e 56 64
e 56 128
e 56 221
e 56 237
e 56 252
e 57 94
e 57 123
e 57 157
e 57 280
e 57 319
e 58 145
e 58 249
e 58 250
e 58 325
e 58 339
e 59 103
e 59 136
e 59 158
e 59 205
e 59 242
e 60 15
e 60 42
e 60 221
e 60 232
e 60 326
e 61 11
e 61 15
e 61 105
e 61 133
e 61 336
e 62 58
e 62 151
e 62 163
e 62 206
e 62 218
e 63 20
e 63 72
e 63 174
e 63 294
e 63 314
e 64 225
e 64 238
e 64 242
e 64 257
e 64 285
e 65 96
e 65 128
e 65 219
e 65 240
e 65 331
e 66 42
e 66 112
e 66 217
e 66 304
e 66 329
e 67 31
e 67 77
e 67 142
e 67 293
e 67 307
e 68 9
e 68 17
e 68 22
e 68 33
e 68 308
e 69 30
e 69 100
e 69 183
e 69 235
e 69 239
e 70 64
e 70 66
e 70 113
e 70 167
e 70 316
e 71 37
e 71 112
e 71 124
e 71 217
e 71 336
e 72 12
e 72 134
e 72 157
e 72 221
e 72 280
e 73 35
e 73 71
e 73 139
e 73 200
e 73 211
e 74 34
e 74 75
e 74 123
e 74 247
e 74 251
e 75 42
e 75 52
e 75 110
e 75 245
e 75 285
e 76 13
e 76 173
e 76 261
e 76 262
e 76 290
e 77 43
e 77 71
e 77 140
e 77 156
e 77 162
e 78 226
e 78 254
e 78 259
e 78 262
e 78 339
e 79 55
e 79 61
e 79 249
e 79 278
e 79 281
e 80 67
e 80 94
e 80 151
e 80 188
e 80 255
e 81 58
e 81 77
e 81 93
e 81 216
e 81 327
e 82 235
e 82 250
e 82 290
e 82 320
e 82 339
e 83 124
e 83 141
e 83 194
e 83 203
e 83 276
e 84 26
e 84 62
e 84 152
e 84 199
e 84 309
e 85 108
e 85 163
e 85 223
e 85 227
e 85 312
e 86 12
e 86 112
e 86 172
e 86 242
e 86 270
e 87 73
e 87 107
e 87 168
e 87 260
e 87 324
e 88 6
e 88 106
e 88 138
e 88 183
e 88 200
e 89 41
e 89 75
e 89 99
e 89 188
e 89 309
e 90 99
e 90 227
e 90 236
e 90 288
e 90 291
e 91 16
e 91 42
e 91 67
e 91 94
e 91 301
e 92 22
e 92 49
e 92 116
e 92 117
e 92 222
e 93 96
e 93 108
e 93 135
e 93 152
e 93 274
e 94 119
e 94 179
e 94 250
e 94 306
e 94 337
e 95 36
e 95 142
e 95 162
e 95 228
e 95 231
e 96 138
e 96 168
e 96 220
e 96 299
e 96 324
e 97 24
e 97 106
e 97 140
e 97 177
e 97 245
e 98 110
e 98 135
e 98 186
e 98 202
e 98 265
e 99 8
e 99 76
e 99 115
e 99 225
e 99 246
e 100 22
e 100 64
e 100 215
e 100 234
e 100 336
e 101 10
e 101 119
e 101 305
e 101 315
e 101 329
e 102 60
e 102 78
e 102 197
e 102 214
e 102 232
e 103 33
e 103 48
e 103 101
e 103 221
e 103 338
e 104 59
e 104 74
e 104 185
e 104 228
e 104 303
e 105 39
e 105 124
e 105 162
e 105 309
e 105 314
e 106 42
e 106 84
e 106 87
e 106 97
e 106 311
e 107 31
e 107 89
e 107 94
e 107 156
e 107 259
e 108 23
e 108 63
e 108 194
e 108 309
e 108 337
e 109 38
e 109 182
e 109 190
e 109 301
e 109 311
e 110 1
e 110 46
e 110 91
e 110 141
e 110 249
e 111 18
e 111 46
e 111 49
e 111 76
e 111 154
e 112 56
e 112 105
e 112 108
e 112 250
e 112 273
e 113 96
e 113 184
e 113 225
e 113 237
e 113 267
e 114 67
e 114 81
e 114 150
e 114 179
e 114 207
e 115 27
e 115 89
e 115 174
e 115 178
e 115 200
e 116 3
e 116 69
e 116 142
e 116 220
e 116 273
e 117 40
e 117 203
e 117 241
e 117 310
e 117 323
e 118 147
e 118 287
e 118 304
e 118 323
e 118 324
e 119 28
e 119 193
e 119 244
e 119 252
e 119 300
e 120 8
e 120 33
e 120 146
e 120 228
e 120 244
e 121 30
e 121 128
e 121 146
e 121 178
e 121 336
e 122 124
e 122 145
e 122 258
e 122 309
e 122 322
e 123 54
e 123 212
e 123 215
e 123 304
e 123 335
e 124 5
e 124 105
e 124 122
e 124 147
e 124 180
e 125 22
e 125 24
e 125 162
e 125 180
e 125 329
e 126 16
e 126 120
e 126 145
e 126 210
e 126 311
e 127 48
e 127 139
e 127 169
e 127 189
e 127 268
e 128 43
e 128 73
e 128 161
e 128 171
e 128 268
e 129 17
e 129 135
e 129 220
e 129 280
e 129 315
e 130 10
e 130 133
e 130 149
e 130 283
e 130 283
e 131 23
e 131 186
e 131 249
e 131 289
e 131 313
e 132 42
e 132 73
e 132 179
e 132 203
e 132 340
e 133 84
e 133 118
e 133 162
e 133 242
e 133 252
e 134 80
e 134 98
e 134 139
e 134 178
e 134 293
e 135 25
e 135 233
e 135 277
e 135 320
e 135 333
e 136 22
e 136 53
e 136 55
e 136 261
e 136 309
e 137 97
e 137 113
e 137 206
e 137 243
e 137 283
e 138 122
e 138 191
e 138 246
e 138 306
e 138 339
e 139 56
e 139 127
e 139 140
e 139 235
e 139 261
e 140 50
e 140 53
e 140 126
e 140 294
e 140 307
e 141 37
e 141 90
e 141 159
e 141 206
e 141 337
e 142 94
e 142 165
e 142 229
e 142 239
e 142 329
e 143 16
e 143 194
e 143 313
e 143 326
e 143 330
e 144 37
e 144 113
e 144 252
e 144 298
e 144 328
e 145 88
e 145 118
e 145 143
e 145 150
e 145 209
e 146 255
e 146 296
e 146 321
e 146 326
e 146 328
e 147 21
e 147 50
e 147 101
e 147 107
e 147 338
e 148 4
e 148 104
e 148 263
e 148 322
e 148 327
e 149 49
e 149 131
e 149 252
e 149 289
e 149 302
e 150 85
e 150 96
e 150 113
e 150 121
e 150 306
e 151 42
e 151 56
e 151 85
e 151 101
e 151 291
e 152 9
e 152 26
e 152 158
e 152 202
e 152 210
e 153 50
e 153 107
e 153 173
e 153 187
e 153 191
e 154 7
e 154 92
e 154 153
e 154 301
e 154 305
e 155 11
e 155 131
e 155 133
e 155 234
e 155 325
e 156 2
e 156 28
e 156 132
e 156 184
e 156 226
e 157 137
e 157 158
e 157 180
e 157 238
e 157 249
e 158 86
e 158 253
e 158 264
e 158 297
e 158 337
e 159 36
e 159 236
e 159 245
e 159 251
e 159 254
e 160 110
e 160 140
e 160 148
e 160 274
e 160 300
e 161 10
e 161 106
e 161 160
e 161 218
e 161 254
e 162 48
e 162 102
e 162 178
e 162 186
e 162 258
e 163 13
e 163 26
e 163 170
e 163 188
e 163 282
e 164 12
e 164 16
e 164 82
e 164 285
e 164 309
e 165 195
e 165 202
e 165 216
e 165 251
e 165 339
e 166 98
e 166 120
e 166 185
e 166 288
e 166 331
e 167 2
e 167 98
e 167 176
e 167 195
e 167 242
e 168 49
e 168 136
e 168 175
e 168 276
e 168 287
e 169 17
e 169 41
e 169 52
e 169 171
e 169 223
e 170 101
e 170 131
e 170 202
e 170 218
e 170 243
e 171 4
e 171 31
e 171 105
e 171 161
e 171 256
e 172 58
e 172 82
e 172 212
e 172 271
e 172 290
e 173 200
e 173 204
e 173 260
e 173 334
e 173 338
e 174 79
e 174 145
e 174 163
e 174 195
e 174 297
e 175 17
e 175 95
e 175 96
e 175 299
e 175 321
e 176 18
e 176 37
e 176 63
e 176 106
e 176 328
e 177 114
e 177 186
e 177 188
e 177 216
e 177 289
e 178 21
e 178 191
e 178 214
e 178 246
e 178 278
e 179 11
e 179 106
e 179 180
e 179 263
e 179 303
e 180 4
e 180 68
e 180 226
e 180 246
e 180 249
e 181 105
e 181 149
e 181 199
e 181 208
e 181 266
e 182 30
e 182 106
e 182 273
e 182 274
e 182 294
e 183 103
e 183 146
e 183 208
e 183 258
e 183 285
e 184 133
e 184 220
e 184 226
e 184 267
e 184 320
e 185 50
e 185 168
e 185 285
e 185 305
e 185 315
e 186 18
e 186 94
e 186 215
e 186 274
e 186 296
e 187 178
e 187 196
e 187 244
e 187 251
e 187 336
e 188 72
e 188 117
e 188 149
e 188 269
e 188 316
e 189 84
e 189 125
e 189 151
e 189 246
e 189 336
e 190 32
e 190 122
e 190 161
e 190 269
e 190 325
e 191 111
e 191 114
e 191 139
e 191 306
e 191 310
e 192 93
e 192 189
e 192 205
e 192 208
e 192 269
e 193 25
e 193 153
e 193 228
e 193 246
e 193 319
e 194 51
e 194 146
e 194 162
e 194 241
e 194 246
e 195 99
e 195 119
e 195 144
e 195 323
e 195 331
e 196 141
e 196 164
e 196 190
e 196 212
e 196 286
e 197 41
e 197 88
e 197 160
e 197 167
e 197 282
e 198 16
e 198 152
e 198 280
e 198 314
e 198 331
e 199 102
e 199 121
e 199 230
e 199 265
e 199 329
e 200 11
e 200 158
e 200 182
e 200 309
e 200 333
e 201 8
e 201 69
e 201 158
e 201 239
e 201 314
e 202 7
e 202 86
e 202 134
e 202 153
e 202 161
e 203 101
e 203 263
e 203 279
e 203 318
e 203 340
e 204 211
e 204 224
e 204 263
e 204 264
e 204 295
e 205 38
e 205 76
e 205 149
e 205 255
e 205 262
e 206 61
e 206 73
e 206 197
e 206 245
e 206 258
e 207 86
e 207 187
e 207 193
e 207 218
e 207 335
e 208 34
e 208 112
e 208 116
e 208 179
e 208 315
e 209 20
e 209 160
e 209 279
e 209 289
e 209 335
e 210 26
e 210 48
e 210 110
e 210 137
e 210 246
e 211 6
e 211 19
e 211 142
e 211 215
e 211 260
e 212 2
e 212 10
e 212 96
e 212 297
e 212 317
e 213 115
e 213 218
e 213 222
e 213 251
e 213 311
e 214 168
e 214 197
e 214 216
e 214 290
e 214 339
e 215 48
e 215 62
e 215 125
e 215 142
e 215 143
e 216 107
e 216 112
e 216 113
e 216 176
e 216 234
e 217 9
e 217 42
e 217 54
e 217 61
e 217 126
e 218 23
e 218 164
e 218 176
e 218 299
e 218 302
e 219 110
e 219 119
e 219 221
e 219 286
e 219 317
e 220 10
e 220 75
e 220 133
e 220 222
e 220 285
e 221 107
e 221 164
e 221 166
e 221 293
e 221 315
e 222 14
e 222 114
e 222 252
e 222 256
e 222 330
e 223 11
e 223 66
e 223 122
e 223 176
e 223 185
e 224 69
e 224 100
e 224 230
e 224 288
e 224 297
e 225 57
e 225 97
e 225 143
e 225 292
e 225 334
e 226 104
e 226 120
e 226 128
e 226 229
e 226 253
e 227 78
e 227 93
e 227 219
e 227 316
e 227 324
e 228 23
e 228 82
e 228 260
e 228 293
e 228 298
e 229 56
e 229 117
e 229 231
e 229 250
e 229 333
e 230 18
e 230 219
e 230 244
e 230 282
e 230 292
e 231 89
e 231 193
e 231 257
e 231 275
e 231 285
e 232 18
e 232 45
e 232 59
e 232 127
e 232 134
e 233 51
e 233 132
e 233 141
e 233 161
e 233 291
e 234 20
e 234 30
e 234 120
e 234 264
e 234 290
e 235 57
e 235 69
e 235 238
e 235 265
e 235 291
e 236 14
e 236 63
e 236 150
e 236 159
e 236 179
e 237 69
e 237 77
e 237 218
e 237 230
e 237 300
e 238 77
e 238 82
e 238 87
e 238 122
e 238 181
e 239 126
e 239 151
e 239 156
e 239 210
e 239 265
e 240 155
e 240 170
e 240 228
e 240 272
e 240 310
e 241 6
e 241 55
e 241 102
e 241 105
e 241 260
e 242 46
e 242 54
e 242 190
e 242 318
e 242 333
e 243 103
e 243 114
e 243 165
e 243 246
e 243 282
e 244 84
e 244 131
e 244 135
e 244 215
e 244 295
e 245 2
e 245 9
e 245 52
e 245 284
e 245 313
e 246 154
e 246 242
e 246 264
e 246 268
e 246 295
e 247 36
e 247 69
e 247 80
e 247 151
e 247 320
e 248 54
e 248 161
e 248 165
e 248 234
e 248 263
e 249 109
e 249 134
e 249 263
e 249 305
e 249 338
e 250 154
e 250 256
e 250 313
e 250 324
e 250 339
e 251 9
e 251 140
e 251 208
e 251 230
e 251 274
e 252 17
e 252 112
e 252 223
e 252 232
e 252 262
e 253 38
e 253 127
e 253 202
e 253 279
e 253 325
e 254 15
e 254 37
e 254 190
e 254 203
e 254 279
e 255 109
e 255 154
e 255 182
e 255 187
e 255 228
e 256 35
e 256 47
e 256 64
e 256 260
e 256 266
e 257 50
e 257 143
e 257 148
e 257 168
e 257 264
e 258 33
e 258 94
e 258 134
e 258 236
e 258 307
e 259 113
e 259 116
e 259 166
e 259 238
e 259 338
e 260 1
e 260 9
e 260 36
e 260 87
e 260 202
e 261 88
e 261 144
e 261 186
e 261 334
e 261 340
e 262 55
e 262 73
e 262 124
e 262 260
e 262 330
e 263 60
e 263 119
e 263 143
e 263 223
e 263 311
e 264 19
e 264 68
e 264 100
e 264 217
e 264 246
e 265 58
e 265 178
e 265 200
e 265 295
e 265 331
e 266 98
e 266 152
e 266 205
e 266 213
e 266 237
e 267 9
e 267 82
e 267 102
e 267 221
e 267 333
e 268 111
e 268 117
e 268 196
e 268 295
e 268 316
e 269 18
e 269 42
e 269 94
e 269 175
e 269 331
e 270 38
e 270 167
e 270 193
e 270 260
e 270 301
e 271 35
e 271 157
e 271 180
e 271 251
e 271 274
e 272 1
e 272 101
e 272 141
e 272 275
e 272 324
e 273 15
e 273 172
e 273 198
e 273 203
e 273 300
e 274 94
e 274 125
e 274 165
e 274 256
e 274 314
e 275 195
e 275 221
e 275 248
e 275 266
e 275 338
e 276 21
e 276 95
e 276 103
e 276 160
e 276 326
e 277 62
e 277 86
e 277 126
e 277 153
e 277 311
e 278 82
e 278 103
e 278 150
e 278 184
e 278 292
e 279 126
e 279 222
e 279 248
e 279 306
e 279 320
e 280 54
e 280 106
e 280 227
e 280 249
e 280 323
e 281 155
e 281 174
e 281 186
e 281 269
e 281 303
e 282 20
e 282 70
e 282 222
e 282 242
e 282 320
e 283 53
e 283 67
e 283 139
e 283 281
e 283 308
e 284 27
e 284 84
e 284 234
e 284 262
e 284 328
e 285 104
e 285 191
e 285 209
e 285 336
e 285 340
e 286 32
e 286 55
e 286 78
e 286 96
e 286 224
e 287 9
e 287 20
e 287 35
e 287 106
e 287 326
e 288 88
e 288 235
e 288 299
e 288 304
e 288 337
e 289 28
e 289 99
e 289 174
e 289 242
e 289 293
e 290 65
e 290 209
e 290 213
e 290 250
e 290 312
e 291 40
e 291 52
e 291 181
e 291 204
e 291 302
e 292 159
e 292 173
e 292 258
e 292 298
e 292 309
e 293 30
e 293 30
e 293 36
e 293 126
e 293 148
e 294 83
e 294 226
e 294 248
e 294 253
e 294 296
e 295 173
e 295 188
e 295 261
e 295 311
e 295 315
e 296 108
e 296 111
e 296 141
e 296 156
e 296 275
e 297 20
e 297 112
e 297 153
e 297 177
e 297 202
e 298 35
e 298 218
e 298 269
e 298 307
e 298 324
e 299 103
e 299 261
e 299 286
e 299 293
e 299 325
e 300 17
e 300 20
e 300 291
e 300 323
e 300 330
e 301 46
e 301 129
e 301 138
e 301 235
e 301 320
e 302 44
e 302 121
e 302 275
e 302 298
e 302 317
e 303 34
e 303 36
e 303 219
e 303 293
e 303 310
e 304 13
e 304 86
e 304 146
e 304 218
e 304 315
e 305 37
e 305 37
e 305 126
e 305 281
e 305 327
e 306 68
e 306 78
e 306 133
e 306 179
e 306 316
e 307 87
e 307 160
e 307 210
e 307 284
e 307 335
e 308 4
e 308 103
e 308 126
e 308 139
e 308 149
e 309 106
e 309 110
e 309 170
e 309 285
e 309 298
e 310 27
e 310 65
e 310 85
e 310 196
e 310 333
e 311 2
e 311 90
e 311 101
e 311 113
e 311 302
e 312 16
e 312 22
e 312 87
e 312 309
e 312 320
e 313 1
e 313 28
e 313 147
e 313 215
e 313 321
e 314 92
e 314 97
e 314 219
e 314 260
e 314 306
e 315 6
e 315 85
e 315 126
e 315 229
e 315 321
e 316 1
e 316 88
e 316 172
e 316 197
e 316 264
e 317 110
e 317 145
e 317 154
e 317 209
e 317 318
e 318 146
e 318 172
e 318 174
e 318 274
e 318 277
e 319 171
e 319 173
e 319 201
e 319 259
e 319 320
e 320 30
e 320 117
e 320 131
e 320 186
e 320 280
e 321 14
e 321 39
e 321 54
e 321 116
e 321 298
e 322 20
e 322 207
e 322 298
e 322 304
e 322 332
e 323 86
e 323 145
e 323 156
e 323 251
e 323 291
e 324 20
e 324 48
e 324 107
e 324 156
e 324 280
e 325 133
e 325 133
e 325 165
e 325 204
e 325 306
e 326 1
e 326 112
e 326 150
e 326 169
e 326 208
e 327 42
e 327 113
e 327 171
e 327 242
e 327 252
e 328 17
e 328 61
e 328 138
e 328 181
e 328 284
e 329 55
e 329 99
e 329 192
e 329 224
e 329 271
e 330 59
e 330 62
e 330 83
e 330 88
e 330 137
e 331 38
e 331 84
e 331 214
e 331 227
e 331 338
e 332 34
e 332 241
e 332 270
e 332 299
e 332 316
e 333 2
e 333 94
e 333 168
e 333 211
e 333 320
e 334 2
e 334 84
e 334 194
e 334 211
e 334 301
e 335 95
e 335 173
e 335 271
e 335 275
e 335 337
e 336 61
e 336 257
e 336 280
e 336 285
e 336 327
e 337 8
e 337 20
e 337 210
e 337 211
e 337 219
e 338 60
e 338 141
e 338 178
e 338 260
e 338 302
e 339 14
e 339 47
e 339 97
e 339 175
e 339 255
e 340 26
e 340 160
e 340 214
e 340 214
e 340 235
